200
1000
209
208
207
205
205
205
203
199
198
198
197
197
194
192
191
189
189
187
186
184
183
183
183
181
180
179
179
177
176
174
174
174
173
173
172
168
168
168
166
166
165
165
165
165
164
161
160
160
159
159
158
158
157
157
154
153
153
152
151
150
150
148
146
146
145
145
144
143
143
141
139
138
138
138
138
137
136
136
135
133
133
131
130
129
127
124
124
123
121
119
118
117
116
115
115
115
115
114
113
112
111
111
111
110
110
107
106
105
105
105
104
103
102
102
102
101
100
100
99
99
99
98
97
96
96
95
92
91
87
86
86
85
85
84
84
84
82
81
80
78
78
76
74
74
72
71
71
70
70
67
67
64
64
63
62
60
59
58
58
56
55
55
54
53
53
52
52
51
50
49
49
46
46
44
44
44
43
43
41
36
35
34
34
34
32
32
29
29
28
28
27
27
21
19
17
14
13
13
13
13
